p cnf 430 1488
-191 46 0
-191 -146 0
-191 167 0
-191 -16 0
-191 44 0
191 -46 146 -167 16 -44 0
-192 -2 0
-192 33 0
-192 80 0
-192 -73 0
-192 -122 0
192 2 -33 -80 73 122 0
-193 -84 0
-193 28 0
-193 40 0
-193 -108 0
-193 -7 0
193 84 -28 -40 108 7 0
-194 -22 0
-194 49 0
-194 141 0
-194 -77 0
-194 71 0
194 22 -49 -141 77 -71 0
-195 -12 0
-195 -108 0
-195 -88 0
-195 166 0
-195 -95 0
195 12 108 88 -166 95 0
191 192 193 194 195 0
-196 -158 0
-196 98 0
-196 -71 0
-196 70 0
-196 -150 0
196 158 -98 71 -70 150 0
-197 -92 0
-197 173 0
-197 187 0
-197 -129 0
-197 153 0
197 92 -173 -187 129 -153 0
-198 -152 0
-198 -17 0
-198 94 0
-198 -123 0
-198 178 0
198 152 17 -94 123 -178 0
-199 -121 0
-199 103 0
-199 190 0
-199 -10 0
-199 -182 0
199 121 -103 -190 10 182 0
-200 37 0
-200 -38 0
-200 -14 0
-200 -9 0
-200 107 0
200 -37 38 14 9 -107 0
196 197 198 199 200 0
-201 -119 0
-201 -166 0
-201 -7 0
-201 -160 0
-201 107 0
201 119 166 7 160 -107 0
-202 -14 0
-202 -92 0
-202 -33 0
-202 -169 0
-202 -49 0
202 14 92 33 169 49 0
-203 55 0
-203 106 0
-203 33 0
-203 155 0
-203 159 0
203 -55 -106 -33 -155 -159 0
-204 163 0
-204 -90 0
-204 190 0
-204 40 0
-204 37 0
204 -163 90 -190 -40 -37 0
-205 33 0
-205 116 0
-205 -30 0
-205 127 0
-205 85 0
205 -33 -116 30 -127 -85 0
201 202 203 204 205 0
-206 37 0
-206 7 0
-206 173 0
-206 -127 0
-206 -155 0
206 -37 -7 -173 127 155 0
-207 137 0
-207 145 0
-207 156 0
-207 -32 0
-207 -125 0
207 -137 -145 -156 32 125 0
-208 15 0
-208 -68 0
-208 -158 0
-208 131 0
-208 190 0
208 -15 68 158 -131 -190 0
-209 -29 0
-209 -99 0
-209 136 0
-209 -106 0
-209 101 0
209 29 99 -136 106 -101 0
-210 -93 0
-210 -52 0
-210 -182 0
-210 190 0
-210 -11 0
210 93 52 182 -190 11 0
206 207 208 209 210 0
-211 -79 0
-211 -148 0
-211 -74 0
-211 77 0
-211 13 0
211 79 148 74 -77 -13 0
-212 -131 0
-212 -74 0
-212 108 0
-212 -61 0
-212 5 0
212 131 74 -108 61 -5 0
-213 -42 0
-213 -67 0
-213 176 0
-213 -100 0
-213 -139 0
213 42 67 -176 100 139 0
-214 100 0
-214 136 0
-214 189 0
-214 4 0
-214 -169 0
214 -100 -136 -189 -4 169 0
-215 92 0
-215 130 0
-215 162 0
-215 -175 0
-215 -101 0
215 -92 -130 -162 175 101 0
211 212 213 214 215 0
-216 -167 0
-216 164 0
-216 -188 0
-216 -64 0
-216 -110 0
216 167 -164 188 64 110 0
-217 -175 0
-217 118 0
-217 120 0
-217 -12 0
-217 -171 0
217 175 -118 -120 12 171 0
-218 8 0
-218 -1 0
-218 -108 0
-218 69 0
-218 168 0
218 -8 1 108 -69 -168 0
-219 171 0
-219 -26 0
-219 79 0
-219 -130 0
-219 -186 0
219 -171 26 -79 130 186 0
-220 111 0
-220 -93 0
-220 171 0
-220 162 0
-220 150 0
220 -111 93 -171 -162 -150 0
216 217 218 219 220 0
-221 60 0
-221 138 0
-221 -174 0
-221 -68 0
-221 -151 0
221 -60 -138 174 68 151 0
-222 11 0
-222 90 0
-222 46 0
-222 -24 0
-222 148 0
222 -11 -90 -46 24 -148 0
-223 105 0
-223 116 0
-223 -14 0
-223 -157 0
-223 58 0
223 -105 -116 14 157 -58 0
-224 145 0
-224 122 0
-224 -116 0
-224 125 0
-224 -50 0
224 -145 -122 116 -125 50 0
-225 -41 0
-225 89 0
-225 161 0
-225 -37 0
-225 -151 0
225 41 -89 -161 37 151 0
221 222 223 224 225 0
-226 67 0
-226 185 0
-226 132 0
-226 -34 0
-226 181 0
226 -67 -185 -132 34 -181 0
-227 -149 0
-227 -143 0
-227 -64 0
-227 -134 0
-227 -110 0
227 149 143 64 134 110 0
-228 63 0
-228 -10 0
-228 25 0
-228 81 0
-228 -68 0
228 -63 10 -25 -81 68 0
-229 187 0
-229 -16 0
-229 -99 0
-229 37 0
-229 3 0
229 -187 16 99 -37 -3 0
-230 70 0
-230 161 0
-230 43 0
-230 41 0
-230 -29 0
230 -70 -161 -43 -41 29 0
226 227 228 229 230 0
-231 -109 0
-231 -36 0
-231 31 0
-231 29 0
-231 -144 0
231 109 36 -31 -29 144 0
-232 6 0
-232 62 0
-232 -146 0
-232 -125 0
-232 -8 0
232 -6 -62 146 125 8 0
-233 -149 0
-233 -40 0
-233 -59 0
-233 -150 0
-233 190 0
233 149 40 59 150 -190 0
-234 -25 0
-234 86 0
-234 120 0
-234 -12 0
-234 166 0
234 25 -86 -120 12 -166 0
-235 126 0
-235 4 0
-235 104 0
-235 -166 0
-235 77 0
235 -126 -4 -104 166 -77 0
231 232 233 234 235 0
-236 -28 0
-236 -91 0
-236 145 0
-236 69 0
-236 -135 0
236 28 91 -145 -69 135 0
-237 -175 0
-237 50 0
-237 -58 0
-237 112 0
-237 -105 0
237 175 -50 58 -112 105 0
-238 -31 0
-238 108 0
-238 136 0
-238 -14 0
-238 -36 0
238 31 -108 -136 14 36 0
-239 -49 0
-239 85 0
-239 -94 0
-239 166 0
-239 185 0
239 49 -85 94 -166 -185 0
-240 -155 0
-240 40 0
-240 -131 0
-240 19 0
-240 93 0
240 155 -40 131 -19 -93 0
236 237 238 239 240 0
-241 -105 0
-241 187 0
-241 48 0
-241 -62 0
-241 -83 0
241 105 -187 -48 62 83 0
-242 -8 0
-242 -77 0
-242 116 0
-242 159 0
-242 69 0
242 8 77 -116 -159 -69 0
-243 57 0
-243 -79 0
-243 -16 0
-243 120 0
-243 159 0
243 -57 79 16 -120 -159 0
-244 34 0
-244 -140 0
-244 -173 0
-244 142 0
-244 -83 0
244 -34 140 173 -142 83 0
-245 71 0
-245 51 0
-245 -173 0
-245 1 0
-245 74 0
245 -71 -51 173 -1 -74 0
241 242 243 244 245 0
-246 -75 0
-246 -60 0
-246 -67 0
-246 -32 0
-246 110 0
246 75 60 67 32 -110 0
-247 177 0
-247 -109 0
-247 48 0
-247 -184 0
-247 97 0
247 -177 109 -48 184 -97 0
-248 -26 0
-248 175 0
-248 -50 0
-248 -140 0
-248 51 0
248 26 -175 50 140 -51 0
-249 173 0
-249 110 0
-249 -116 0
-249 -102 0
-249 10 0
249 -173 -110 116 102 -10 0
-250 131 0
-250 -166 0
-250 60 0
-250 -81 0
-250 -75 0
250 -131 166 -60 81 75 0
246 247 248 249 250 0
-251 -72 0
-251 -5 0
-251 -95 0
-251 34 0
-251 28 0
251 72 5 95 -34 -28 0
-252 -20 0
-252 52 0
-252 -177 0
-252 54 0
-252 170 0
252 20 -52 177 -54 -170 0
-253 81 0
-253 185 0
-253 -181 0
-253 -166 0
-253 153 0
253 -81 -185 181 166 -153 0
-254 -116 0
-254 4 0
-254 -141 0
-254 -148 0
-254 -109 0
254 116 -4 141 148 109 0
-255 -88 0
-255 10 0
-255 61 0
-255 114 0
-255 64 0
255 88 -10 -61 -114 -64 0
251 252 253 254 255 0
-256 19 0
-256 -122 0
-256 118 0
-256 75 0
-256 -98 0
256 -19 122 -118 -75 98 0
-257 64 0
-257 -143 0
-257 -3 0
-257 -156 0
-257 -163 0
257 -64 143 3 156 163 0
-258 -67 0
-258 34 0
-258 19 0
-258 48 0
-258 64 0
258 67 -34 -19 -48 -64 0
-259 -79 0
-259 141 0
-259 7 0
-259 -190 0
-259 98 0
259 79 -141 -7 190 -98 0
-260 54 0
-260 188 0
-260 166 0
-260 -187 0
-260 24 0
260 -54 -188 -166 187 -24 0
256 257 258 259 260 0
-261 118 0
-261 -77 0
-261 -165 0
-261 22 0
-261 156 0
261 -118 77 165 -22 -156 0
-262 -108 0
-262 123 0
-262 -144 0
-262 -7 0
-262 189 0
262 108 -123 144 7 -189 0
-263 122 0
-263 -116 0
-263 -153 0
-263 29 0
-263 -155 0
263 -122 116 153 -29 155 0
-264 10 0
-264 -134 0
-264 -28 0
-264 152 0
-264 -66 0
264 -10 134 28 -152 66 0
-265 185 0
-265 -6 0
-265 155 0
-265 118 0
-265 44 0
265 -185 6 -155 -118 -44 0
261 262 263 264 265 0
-266 138 0
-266 -104 0
-266 163 0
-266 -26 0
-266 -68 0
266 -138 104 -163 26 68 0
-267 1 0
-267 92 0
-267 -155 0
-267 -75 0
-267 178 0
267 -1 -92 155 75 -178 0
-268 35 0
-268 42 0
-268 131 0
-268 44 0
-268 -22 0
268 -35 -42 -131 -44 22 0
-269 -97 0
-269 -140 0
-269 -148 0
-269 182 0
-269 36 0
269 97 140 148 -182 -36 0
-270 -152 0
-270 -25 0
-270 -171 0
-270 190 0
-270 170 0
270 152 25 171 -190 -170 0
266 267 268 269 270 0
-271 24 0
-271 60 0
-271 -37 0
-271 171 0
-271 -61 0
271 -24 -60 37 -171 61 0
-272 -26 0
-272 -156 0
-272 127 0
-272 161 0
-272 -83 0
272 26 156 -127 -161 83 0
-273 145 0
-273 -3 0
-273 -76 0
-273 -127 0
-273 83 0
273 -145 3 76 127 -83 0
-274 -163 0
-274 133 0
-274 -75 0
-274 118 0
-274 68 0
274 163 -133 75 -118 -68 0
-275 -171 0
-275 6 0
-275 86 0
-275 47 0
-275 -73 0
275 171 -6 -86 -47 73 0
271 272 273 274 275 0
-276 93 0
-276 -103 0
-276 78 0
-276 9 0
-276 -151 0
276 -93 103 -78 -9 151 0
-277 -118 0
-277 177 0
-277 155 0
-277 -5 0
-277 -63 0
277 118 -177 -155 5 63 0
-278 -5 0
-278 117 0
-278 166 0
-278 147 0
-278 -2 0
278 5 -117 -166 -147 2 0
-279 142 0
-279 48 0
-279 99 0
-279 2 0
-279 -148 0
279 -142 -48 -99 -2 148 0
-280 -180 0
-280 59 0
-280 166 0
-280 177 0
-280 -108 0
280 180 -59 -166 -177 108 0
276 277 278 279 280 0
-281 -30 0
-281 -56 0
-281 -164 0
-281 -19 0
-281 159 0
281 30 56 164 19 -159 0
-282 -107 0
-282 -118 0
-282 -54 0
-282 -125 0
-282 -26 0
282 107 118 54 125 26 0
-283 189 0
-283 -68 0
-283 -106 0
-283 73 0
-283 71 0
283 -189 68 106 -73 -71 0
-284 11 0
-284 179 0
-284 115 0
-284 -74 0
-284 -171 0
284 -11 -179 -115 74 171 0
-285 -82 0
-285 -146 0
-285 -122 0
-285 105 0
-285 185 0
285 82 146 122 -105 -185 0
281 282 283 284 285 0
-286 -138 0
-286 -121 0
-286 -167 0
-286 53 0
-286 149 0
286 138 121 167 -53 -149 0
-287 36 0
-287 76 0
-287 171 0
-287 52 0
-287 -46 0
287 -36 -76 -171 -52 46 0
-288 -128 0
-288 13 0
-288 -43 0
-288 -139 0
-288 -37 0
288 128 -13 43 139 37 0
-289 44 0
-289 35 0
-289 146 0
-289 87 0
-289 -49 0
289 -44 -35 -146 -87 49 0
-290 91 0
-290 -178 0
-290 -135 0
-290 85 0
-290 -44 0
290 -91 178 135 -85 44 0
286 287 288 289 290 0
-291 16 0
-291 188 0
-291 -20 0
-291 -137 0
-291 89 0
291 -16 -188 20 137 -89 0
-292 -188 0
-292 87 0
-292 60 0
-292 136 0
-292 160 0
292 188 -87 -60 -136 -160 0
-293 -133 0
-293 14 0
-293 -107 0
-293 2 0
-293 -75 0
293 133 -14 107 -2 75 0
-294 -98 0
-294 17 0
-294 -147 0
-294 28 0
-294 -18 0
294 98 -17 147 -28 18 0
-295 172 0
-295 2 0
-295 175 0
-295 -68 0
-295 -98 0
295 -172 -2 -175 68 98 0
291 292 293 294 295 0
-296 -96 0
-296 121 0
-296 -39 0
-296 120 0
-296 173 0
296 96 -121 39 -120 -173 0
-297 -83 0
-297 101 0
-297 -63 0
-297 -124 0
-297 16 0
297 83 -101 63 124 -16 0
-298 -141 0
-298 39 0
-298 -3 0
-298 -182 0
-298 -181 0
298 141 -39 3 182 181 0
-299 128 0
-299 94 0
-299 -84 0
-299 181 0
-299 31 0
299 -128 -94 84 -181 -31 0
-300 -168 0
-300 -28 0
-300 146 0
-300 98 0
-300 89 0
300 168 28 -146 -98 -89 0
296 297 298 299 300 0
-301 -34 0
-301 18 0
-301 -39 0
-301 -41 0
-301 -4 0
301 34 -18 39 41 4 0
-302 100 0
-302 -149 0
-302 -182 0
-302 188 0
-302 23 0
302 -100 149 182 -188 -23 0
-303 6 0
-303 -163 0
-303 -119 0
-303 61 0
-303 147 0
303 -6 163 119 -61 -147 0
-304 109 0
-304 46 0
-304 -148 0
-304 -172 0
-304 190 0
304 -109 -46 148 172 -190 0
-305 98 0
-305 -138 0
-305 102 0
-305 23 0
-305 -103 0
305 -98 138 -102 -23 103 0
301 302 303 304 305 0
-306 162 0
-306 54 0
-306 -104 0
-306 42 0
-306 -36 0
306 -162 -54 104 -42 36 0
-307 163 0
-307 -34 0
-307 -135 0
-307 -108 0
-307 -46 0
307 -163 34 135 108 46 0
-308 -88 0
-308 -144 0
-308 -150 0
-308 -182 0
-308 3 0
308 88 144 150 182 -3 0
-309 167 0
-309 -45 0
-309 -20 0
-309 -22 0
-309 -190 0
309 -167 45 20 22 190 0
-310 -100 0
-310 -158 0
-310 -6 0
-310 -92 0
-310 133 0
310 100 158 6 92 -133 0
306 307 308 309 310 0
-311 -16 0
-311 160 0
-311 -55 0
-311 -76 0
-311 -124 0
311 16 -160 55 76 124 0
-312 163 0
-312 116 0
-312 -12 0
-312 -141 0
-312 -183 0
312 -163 -116 12 141 183 0
-313 166 0
-313 -43 0
-313 -140 0
-313 -132 0
-313 185 0
313 -166 43 140 132 -185 0
-314 99 0
-314 31 0
-314 124 0
-314 117 0
-314 -112 0
314 -99 -31 -124 -117 112 0
-315 -56 0
-315 -36 0
-315 64 0
-315 -159 0
-315 -165 0
315 56 36 -64 159 165 0
311 312 313 314 315 0
-316 -19 0
-316 -132 0
-316 -94 0
-316 -3 0
-316 65 0
316 19 132 94 3 -65 0
-317 -20 0
-317 57 0
-317 172 0
-317 -127 0
-317 -107 0
317 20 -57 -172 127 107 0
-318 169 0
-318 6 0
-318 129 0
-318 -69 0
-318 81 0
318 -169 -6 -129 69 -81 0
-319 55 0
-319 -158 0
-319 23 0
-319 -8 0
-319 -26 0
319 -55 158 -23 8 26 0
-320 102 0
-320 99 0
-320 5 0
-320 54 0
-320 39 0
320 -102 -99 -5 -54 -39 0
316 317 318 319 320 0
-321 -96 0
-321 -7 0
-321 -53 0
-321 -29 0
-321 -94 0
321 96 7 53 29 94 0
-322 -143 0
-322 -114 0
-322 -159 0
-322 -10 0
-322 35 0
322 143 114 159 10 -35 0
-323 -180 0
-323 -63 0
-323 -169 0
-323 71 0
-323 23 0
323 180 63 169 -71 -23 0
-324 189 0
-324 103 0
-324 130 0
-324 52 0
-324 88 0
324 -189 -103 -130 -52 -88 0
-325 -18 0
-325 166 0
-325 118 0
-325 123 0
-325 -82 0
325 18 -166 -118 -123 82 0
321 322 323 324 325 0
-326 81 0
-326 130 0
-326 104 0
-326 -187 0
-326 -175 0
326 -81 -130 -104 187 175 0
-327 92 0
-327 -114 0
-327 34 0
-327 169 0
-327 1 0
327 -92 114 -34 -169 -1 0
-328 -90 0
-328 152 0
-328 68 0
-328 130 0
-328 -132 0
328 90 -152 -68 -130 132 0
-329 -180 0
-329 82 0
-329 -54 0
-329 -158 0
-329 -8 0
329 180 -82 54 158 8 0
-330 -66 0
-330 56 0
-330 190 0
-330 -175 0
-330 -170 0
330 66 -56 -190 175 170 0
326 327 328 329 330 0
-331 -176 0
-331 -150 0
-331 114 0
-331 53 0
-331 -182 0
331 176 150 -114 -53 182 0
-332 -84 0
-332 29 0
-332 161 0
-332 -10 0
-332 131 0
332 84 -29 -161 10 -131 0
-333 -14 0
-333 67 0
-333 -49 0
-333 -42 0
-333 -97 0
333 14 -67 49 42 97 0
-334 -86 0
-334 51 0
-334 -169 0
-334 -123 0
-334 3 0
334 86 -51 169 123 -3 0
-335 -86 0
-335 -158 0
-335 121 0
-335 162 0
-335 189 0
335 86 158 -121 -162 -189 0
331 332 333 334 335 0
-336 -57 0
-336 -50 0
-336 -162 0
-336 -119 0
-336 -59 0
336 57 50 162 119 59 0
-337 -97 0
-337 -7 0
-337 185 0
-337 62 0
-337 135 0
337 97 7 -185 -62 -135 0
-338 -32 0
-338 -124 0
-338 -121 0
-338 -170 0
-338 -96 0
338 32 124 121 170 96 0
-339 -127 0
-339 155 0
-339 -96 0
-339 -56 0
-339 23 0
339 127 -155 96 56 -23 0
-340 182 0
-340 -150 0
-340 42 0
-340 -20 0
-340 -99 0
340 -182 150 -42 20 99 0
336 337 338 339 340 0
-341 -52 0
-341 126 0
-341 -148 0
-341 -184 0
-341 -125 0
341 52 -126 148 184 125 0
-342 83 0
-342 -129 0
-342 116 0
-342 34 0
-342 66 0
342 -83 129 -116 -34 -66 0
-343 73 0
-343 -81 0
-343 -90 0
-343 -176 0
-343 1 0
343 -73 81 90 176 -1 0
-344 23 0
-344 70 0
-344 -83 0
-344 177 0
-344 -27 0
344 -23 -70 83 -177 27 0
-345 -94 0
-345 136 0
-345 134 0
-345 -111 0
-345 86 0
345 94 -136 -134 111 -86 0
341 342 343 344 345 0
-346 68 0
-346 -62 0
-346 -106 0
-346 -71 0
-346 116 0
346 -68 62 106 71 -116 0
-347 -130 0
-347 8 0
-347 -164 0
-347 102 0
-347 -137 0
347 130 -8 164 -102 137 0
-348 86 0
-348 -41 0
-348 -68 0
-348 114 0
-348 -137 0
348 -86 41 68 -114 137 0
-349 -73 0
-349 182 0
-349 -21 0
-349 156 0
-349 52 0
349 73 -182 21 -156 -52 0
-350 118 0
-350 -137 0
-350 51 0
-350 -92 0
-350 18 0
350 -118 137 -51 92 -18 0
346 347 348 349 350 0
-351 -109 0
-351 126 0
-351 -90 0
-351 73 0
-351 -156 0
351 109 -126 90 -73 156 0
-352 -9 0
-352 -21 0
-352 -51 0
-352 -141 0
-352 -11 0
352 9 21 51 141 11 0
-353 167 0
-353 -165 0
-353 -17 0
-353 -157 0
-353 -6 0
353 -167 165 17 157 6 0
-354 106 0
-354 109 0
-354 -19 0
-354 -120 0
-354 -18 0
354 -106 -109 19 120 18 0
-355 -12 0
-355 -73 0
-355 143 0
-355 -10 0
-355 -136 0
355 12 73 -143 10 136 0
351 352 353 354 355 0
-356 131 0
-356 102 0
-356 8 0
-356 163 0
-356 73 0
356 -131 -102 -8 -163 -73 0
-357 -172 0
-357 -69 0
-357 -153 0
-357 -147 0
-357 159 0
357 172 69 153 147 -159 0
-358 -162 0
-358 175 0
-358 -32 0
-358 -176 0
-358 26 0
358 162 -175 32 176 -26 0
-359 -128 0
-359 162 0
-359 -133 0
-359 -167 0
-359 -156 0
359 128 -162 133 167 156 0
-360 65 0
-360 -21 0
-360 145 0
-360 -115 0
-360 138 0
360 -65 21 -145 115 -138 0
356 357 358 359 360 0
-361 38 0
-361 145 0
-361 12 0
-361 102 0
-361 47 0
361 -38 -145 -12 -102 -47 0
-362 -34 0
-362 74 0
-362 182 0
-362 -101 0
-362 147 0
362 34 -74 -182 101 -147 0
-363 -151 0
-363 61 0
-363 -98 0
-363 93 0
-363 -42 0
363 151 -61 98 -93 42 0
-364 -38 0
-364 30 0
-364 -119 0
-364 -187 0
-364 -122 0
364 38 -30 119 187 122 0
-365 -24 0
-365 189 0
-365 108 0
-365 -9 0
-365 -47 0
365 24 -189 -108 9 47 0
361 362 363 364 365 0
-366 -44 0
-366 -154 0
-366 162 0
-366 89 0
-366 114 0
366 44 154 -162 -89 -114 0
-367 146 0
-367 181 0
-367 -32 0
-367 -160 0
-367 -105 0
367 -146 -181 32 160 105 0
-368 -150 0
-368 81 0
-368 -156 0
-368 -50 0
-368 -84 0
368 150 -81 156 50 84 0
-369 97 0
-369 -109 0
-369 46 0
-369 -158 0
-369 -189 0
369 -97 109 -46 158 189 0
-370 -44 0
-370 17 0
-370 177 0
-370 -14 0
-370 161 0
370 44 -17 -177 14 -161 0
366 367 368 369 370 0
-371 -17 0
-371 -132 0
-371 -164 0
-371 -162 0
-371 139 0
371 17 132 164 162 -139 0
-372 -82 0
-372 -96 0
-372 -10 0
-372 141 0
-372 103 0
372 82 96 10 -141 -103 0
-373 -81 0
-373 -78 0
-373 -109 0
-373 -130 0
-373 -169 0
373 81 78 109 130 169 0
-374 48 0
-374 -55 0
-374 148 0
-374 9 0
-374 -126 0
374 -48 55 -148 -9 126 0
-375 177 0
-375 -35 0
-375 151 0
-375 -183 0
-375 154 0
375 -177 35 -151 183 -154 0
371 372 373 374 375 0
-376 -109 0
-376 182 0
-376 14 0
-376 79 0
-376 154 0
376 109 -182 -14 -79 -154 0
-377 3 0
-377 -179 0
-377 -18 0
-377 169 0
-377 -24 0
377 -3 179 18 -169 24 0
-378 -54 0
-378 -148 0
-378 111 0
-378 -13 0
-378 81 0
378 54 148 -111 13 -81 0
-379 -53 0
-379 25 0
-379 -144 0
-379 -111 0
-379 151 0
379 53 -25 144 111 -151 0
-380 94 0
-380 -87 0
-380 44 0
-380 50 0
-380 -171 0
380 -94 87 -44 -50 171 0
376 377 378 379 380 0
-381 52 0
-381 94 0
-381 149 0
-381 55 0
-381 92 0
381 -52 -94 -149 -55 -92 0
-382 -99 0
-382 6 0
-382 150 0
-382 176 0
-382 70 0
382 99 -6 -150 -176 -70 0
-383 -76 0
-383 37 0
-383 -123 0
-383 165 0
-383 -80 0
383 76 -37 123 -165 80 0
-384 82 0
-384 150 0
-384 84 0
-384 107 0
-384 -20 0
384 -82 -150 -84 -107 20 0
-385 -187 0
-385 47 0
-385 -140 0
-385 -170 0
-385 186 0
385 187 -47 140 170 -186 0
381 382 383 384 385 0
-386 -111 0
-386 -8 0
-386 -59 0
-386 -75 0
-386 -140 0
386 111 8 59 75 140 0
-387 86 0
-387 -20 0
-387 -14 0
-387 25 0
-387 -31 0
387 -86 20 14 -25 31 0
-388 94 0
-388 -119 0
-388 -46 0
-388 114 0
-388 173 0
388 -94 119 46 -114 -173 0
-389 184 0
-389 -124 0
-389 188 0
-389 -148 0
-389 -152 0
389 -184 124 -188 148 152 0
-390 108 0
-390 91 0
-390 -51 0
-390 -121 0
-390 116 0
390 -108 -91 51 121 -116 0
386 387 388 389 390 0
-391 26 0
-391 60 0
-391 16 0
-391 -85 0
-391 -136 0
391 -26 -60 -16 85 136 0
-392 -155 0
-392 3 0
-392 -1 0
-392 80 0
-392 -144 0
392 155 -3 1 -80 144 0
-393 -127 0
-393 -73 0
-393 -85 0
-393 146 0
-393 -166 0
393 127 73 85 -146 166 0
-394 48 0
-394 -25 0
-394 -35 0
-394 -42 0
-394 128 0
394 -48 25 35 42 -128 0
-395 160 0
-395 30 0
-395 131 0
-395 178 0
-395 -57 0
395 -160 -30 -131 -178 57 0
391 392 393 394 395 0
-396 147 0
-396 65 0
-396 -94 0
-396 69 0
-396 -67 0
396 -147 -65 94 -69 67 0
-397 -145 0
-397 166 0
-397 -129 0
-397 -119 0
-397 18 0
397 145 -166 129 119 -18 0
-398 -183 0
-398 139 0
-398 -43 0
-398 -49 0
-398 -98 0
398 183 -139 43 49 98 0
-399 1 0
-399 150 0
-399 28 0
-399 -176 0
-399 156 0
399 -1 -150 -28 176 -156 0
-400 -166 0
-400 -4 0
-400 -27 0
-400 162 0
-400 101 0
400 166 4 27 -162 -101 0
396 397 398 399 400 0
-401 146 0
-401 131 0
-401 140 0
-401 -158 0
-401 41 0
401 -146 -131 -140 158 -41 0
-402 -12 0
-402 134 0
-402 61 0
-402 -38 0
-402 55 0
402 12 -134 -61 38 -55 0
-403 -44 0
-403 -92 0
-403 149 0
-403 -11 0
-403 145 0
403 44 92 -149 11 -145 0
-404 2 0
-404 -109 0
-404 -25 0
-404 -80 0
-404 -8 0
404 -2 109 25 80 8 0
-405 182 0
-405 -47 0
-405 -37 0
-405 -152 0
-405 -151 0
405 -182 47 37 152 151 0
401 402 403 404 405 0
-406 -32 0
-406 -2 0
-406 115 0
-406 -73 0
-406 -22 0
406 32 2 -115 73 22 0
-407 128 0
-407 127 0
-407 93 0
-407 -74 0
-407 -94 0
407 -128 -127 -93 74 94 0
-408 70 0
-408 -116 0
-408 -110 0
-408 9 0
-408 51 0
408 -70 116 110 -9 -51 0
-409 -167 0
-409 -93 0
-409 94 0
-409 165 0
-409 -147 0
409 167 93 -94 -165 147 0
-410 -140 0
-410 -131 0
-410 38 0
-410 40 0
-410 -107 0
410 140 131 -38 -40 107 0
406 407 408 409 410 0
-411 -108 0
-411 -22 0
-411 29 0
-411 -141 0
-411 98 0
411 108 22 -29 141 -98 0
-412 88 0
-412 93 0
-412 -157 0
-412 32 0
-412 31 0
412 -88 -93 157 -32 -31 0
-413 15 0
-413 -166 0
-413 160 0
-413 112 0
-413 -47 0
413 -15 166 -160 -112 47 0
-414 -144 0
-414 19 0
-414 3 0
-414 84 0
-414 -40 0
414 144 -19 -3 -84 40 0
-415 159 0
-415 -115 0
-415 -24 0
-415 77 0
-415 73 0
415 -159 115 24 -77 -73 0
411 412 413 414 415 0
-416 -165 0
-416 178 0
-416 -124 0
-416 -127 0
-416 48 0
416 165 -178 124 127 -48 0
-417 -123 0
-417 -188 0
-417 73 0
-417 66 0
-417 -2 0
417 123 188 -73 -66 2 0
-418 146 0
-418 -121 0
-418 90 0
-418 -143 0
-418 151 0
418 -146 121 -90 143 -151 0
-419 115 0
-419 -31 0
-419 -1 0
-419 -14 0
-419 -108 0
419 -115 31 1 14 108 0
-420 -90 0
-420 -113 0
-420 -55 0
-420 -75 0
-420 -121 0
420 90 113 55 75 121 0
416 417 418 419 420 0
-421 166 0
-421 65 0
-421 -102 0
-421 -151 0
-421 25 0
421 -166 -65 102 151 -25 0
-422 21 0
-422 31 0
-422 144 0
-422 169 0
-422 -50 0
422 -21 -31 -144 -169 50 0
-423 -155 0
-423 163 0
-423 108 0
-423 -137 0
-423 -99 0
423 155 -163 -108 137 99 0
-424 -36 0
-424 -130 0
-424 15 0
-424 -23 0
-424 85 0
424 36 130 -15 23 -85 0
-425 -10 0
-425 106 0
-425 -179 0
-425 159 0
-425 31 0
425 10 -106 179 -159 -31 0
421 422 423 424 425 0
-426 94 0
-426 -7 0
-426 39 0
-426 65 0
-426 37 0
426 -94 7 -39 -65 -37 0
-427 180 0
-427 -28 0
-427 161 0
-427 52 0
-427 -91 0
427 -180 28 -161 -52 91 0
-428 -124 0
-428 -153 0
-428 26 0
-428 -180 0
-428 -183 0
428 124 153 -26 180 183 0
-429 158 0
-429 -132 0
-429 -34 0
-429 -84 0
-429 -127 0
429 -158 132 34 84 127 0
-430 18 0
-430 94 0
-430 -48 0
-430 -109 0
-430 -79 0
430 -18 -94 48 109 79 0
426 427 428 429 430 0
